decision_x1=[0,4];
decision_x8=[0,4];
decision_x2=[0,4];
decision_x3=[0,4];
decision_x4=[0,4];
decision_x5=[0,4];
decision_x6=[0,4];
decision_x7=[0,4];
random_y1=[0,4];
random_y2=[0,4];
random_y3=[0,4];
random_y4=[0,4];
constraint_x3_x1=[
0,1,5.6|
0,2,9.5|
0,3,0.86|
0,4,1.2|
1,0,6.9|
1,2,9.7|
1,3,9.7|
1,4,1.4|
2,0,7.7|
2,1,9.2|
2,3,7.4|
2,4,1.9|
3,0,8.4|
3,1,8.7|
3,2,10|
3,4,3.5|
4,0,0.025|
4,1,4.2|
4,2,3.8|
4,3,8.7|
];
constraint_x3_x2=[
0,1,9.9|
0,2,1.5|
0,3,5.4|
0,4,2.3|
1,0,5.2|
1,2,6.4|
1,3,1.3|
1,4,0.088|
2,0,9.2|
2,1,5.4|
2,3,3|
2,4,1.9|
3,0,2.5|
3,1,0.25|
3,2,4.1|
3,4,4.6|
4,0,0.42|
4,1,2.6|
4,2,5|
4,3,3|
];
constraint_x4_x2=[
0,1,9|
0,2,0.58|
0,3,7.6|
0,4,1.2|
1,0,6.9|
1,2,6.7|
1,3,1.5|
1,4,3.9|
2,0,6.8|
2,1,0.2|
2,3,6.4|
2,4,5.4|
3,0,7|
3,1,5.2|
3,2,3|
3,4,3.4|
4,0,4.4|
4,1,0.31|
4,2,4.7|
4,3,0.49|
];
constraint_x5_x3=[
0,1,3.2|
0,2,5.7|
0,3,2.3|
0,4,6.7|
1,0,5.5|
1,2,1.5|
1,3,3.1|
1,4,9.5|
2,0,2.1|
2,1,3|
2,3,3.6|
2,4,3.4|
3,0,9.3|
3,1,0.43|
3,2,9.9|
3,4,3.8|
4,0,2.1|
4,1,4.2|
4,2,9.2|
4,3,1.3|
];
constraint_x6_x1=[
0,1,4.5|
0,2,8.5|
0,3,1.9|
0,4,9.6|
1,0,1.6|
1,2,2.7|
1,3,1.9|
1,4,0.1|
2,0,3.6|
2,1,9.6|
2,3,8.9|
2,4,3.4|
3,0,0.56|
3,1,9.1|
3,2,2.5|
3,4,1.4|
4,0,9|
4,1,2|
4,2,7.4|
4,3,9.3|
];
constraint_x6_x5=[
0,1,0.86|
0,2,7.5|
0,3,5.6|
0,4,1.7|
1,0,1.6|
1,2,9.3|
1,3,7.1|
1,4,3.9|
2,0,2.2|
2,1,4.1|
2,3,9.2|
2,4,7.2|
3,0,4.6|
3,1,5.4|
3,2,7.1|
3,4,0.11|
4,0,5.5|
4,1,7.2|
4,2,3.5|
4,3,6.8|
];
constraint_x7_x1=[
0,1,6.8|
0,2,5.2|
0,3,7.4|
0,4,6.6|
1,0,9.1|
1,2,0.0075|
1,3,6.3|
1,4,8.6|
2,0,1.8|
2,1,1.9|
2,3,6.2|
2,4,2.2|
3,0,1.7|
3,1,6.4|
3,2,6.8|
3,4,9.3|
4,0,5.1|
4,1,4.7|
4,2,7.2|
4,3,3.7|
];
constraint_x7_x4=[
0,1,9.3|
0,2,0.79|
0,3,5.9|
0,4,2.9|
1,0,5.8|
1,2,6.8|
1,3,2.4|
1,4,0.65|
2,0,2.4|
2,1,0.34|
2,3,6.1|
2,4,2.6|
3,0,4.7|
3,1,3.3|
3,2,8.7|
3,4,7.5|
4,0,5.3|
4,1,6.9|
4,2,2.2|
4,3,6.2|
];
constraint_x7_x5=[
0,1,2.5|
0,2,1.8|
0,3,9.6|
0,4,4.2|
1,0,7.7|
1,2,7.5|
1,3,1.5|
1,4,6.9|
2,0,5.9|
2,1,3.3|
2,3,8.2|
2,4,1.8|
3,0,2.6|
3,1,5.9|
3,2,7.5|
3,4,5.6|
4,0,8.8|
4,1,2.5|
4,2,4|
4,3,6.1|
];
constraint_x7_x6=[
0,1,5.4|
0,2,2|
0,3,9.2|
0,4,9.1|
1,0,3.2|
1,2,0.32|
1,3,4.8|
1,4,9.5|
2,0,9|
2,1,0.11|
2,3,2.8|
2,4,9|
3,0,3|
3,1,8.5|
3,2,7.5|
3,4,7.1|
4,0,3.8|
4,1,6.9|
4,2,5|
4,3,7|
];
constraint_x8_x2=[
0,1,8.5|
0,2,5.3|
0,3,6|
0,4,8.8|
1,0,8.6|
1,2,9.2|
1,3,2.4|
1,4,8.8|
2,0,9.1|
2,1,8.4|
2,3,3.5|
2,4,7.4|
3,0,8.1|
3,1,9.3|
3,2,7|
3,4,5.7|
4,0,3.1|
4,1,2|
4,2,2.9|
4,3,5.5|
];
constraint_x8_x4=[
0,1,2.4|
0,2,3.6|
0,3,6.6|
0,4,7|
1,0,6.3|
1,2,4.5|
1,3,6.2|
1,4,1.3|
2,0,0.12|
2,1,2.6|
2,3,8.5|
2,4,9.8|
3,0,0.55|
3,1,5.5|
3,2,3.9|
3,4,6.9|
4,0,3.3|
4,1,7.7|
4,2,0.7|
4,3,5.3|
];
constraint_x8_x6=[
0,1,2.3|
0,2,2.1|
0,3,2.2|
0,4,1.3|
1,0,0.75|
1,2,5.1|
1,3,7.3|
1,4,8.3|
2,0,1.9|
2,1,9.9|
2,3,6.2|
2,4,0.14|
3,0,1.2|
3,1,2.5|
3,2,7.9|
3,4,3.6|
4,0,0.88|
4,1,6.7|
4,2,5.6|
4,3,9.7|
];
constraint_x8_x7=[
0,1,9.2|
0,2,0.11|
0,3,3.6|
0,4,5.6|
1,0,0.68|
1,2,3.9|
1,3,8.5|
1,4,0.5|
2,0,1.3|
2,1,9.3|
2,3,6|
2,4,9.2|
3,0,2.6|
3,1,3|
3,2,5.7|
3,4,7.4|
4,0,3.2|
4,1,2.3|
4,2,9.8|
4,3,3.8|
];
constraint_x1_y1=[
0,0,7.3|
0,1,7.8|
0,2,7.7|
0,3,3.2|
0,4,5|
1,0,4.3|
1,1,8.1|
1,2,5|
1,3,7.1|
1,4,6.8|
2,0,8.6|
2,1,3.9|
2,2,5.2|
2,3,1.5|
2,4,0.35|
3,0,2.2|
3,1,1.5|
3,2,3.9|
3,3,6.8|
3,4,7.8|
4,0,7.2|
4,1,5.9|
4,2,3.6|
4,3,5.3|
4,4,6.3|
];
constraint_x2_y2=[
0,0,8|
0,1,7.4|
0,2,1.9|
0,3,3.4|
0,4,5.5|
1,0,10|
1,1,8|
1,2,1.4|
1,3,1.1|
1,4,0.85|
2,0,7|
2,1,0.65|
2,2,2.1|
2,3,1.5|
2,4,1.2|
3,0,8|
3,1,0.86|
3,2,9.8|
3,3,2.7|
3,4,3.2|
4,0,0.45|
4,1,5.2|
4,2,5|
4,3,9.2|
4,4,6|
];
constraint_x3_y3=[
0,0,6.4|
0,1,4.9|
0,2,2.5|
0,3,7.4|
0,4,0.1|
1,0,8.3|
1,1,8.5|
1,2,0.37|
1,3,0.54|
1,4,8|
2,0,2.6|
2,1,9.2|
2,2,0.13|
2,3,3|
2,4,0.14|
3,0,8.3|
3,1,8.7|
3,2,3.1|
3,3,3.7|
3,4,1.5|
4,0,7.5|
4,1,7.4|
4,2,2.1|
4,3,4.8|
4,4,7.8|
];
constraint_x4_y4=[
0,0,0.97|
0,1,8.5|
0,2,5.1|
0,3,6.9|
0,4,9.1|
1,0,6.1|
1,1,1.1|
1,2,7.6|
1,3,2.1|
1,4,5.6|
2,0,9.2|
2,1,9.2|
2,2,1.9|
2,3,4.5|
2,4,1.2|
3,0,9.1|
3,1,5.3|
3,2,2.6|
3,3,1.1|
3,4,0.67|
4,0,5.3|
4,1,8|
4,2,1.3|
4,3,2.8|
4,4,8.7|
];
initial_distribution_y1=[0.27,0.1,0.028,0.27,0.33];
initial_distribution_y2=[0.22,0.32,0.24,0.015,0.22];
initial_distribution_y3=[0.47,0.061,0.21,0.084,0.17];
initial_distribution_y4=[0.072,0.059,0.18,0.31,0.38];
transition_y1=[
0.33,0.19,0.3,0.078,0.11|
0.17,0.0068,0.2,0.24,0.39|
0.4,0.4,0.026,0.16,0.016|
0.21,0.24,0.22,0.18,0.14|
0.37,0.21,0.081,0.045,0.3|
];
transition_y2=[
0.078,0.055,0.2,0.06,0.61|
0.21,0.24,0.2,0.18,0.18|
0.16,0.12,0.12,0.5,0.11|
0.23,0.082,0.23,0.26,0.19|
0.15,0.2,0.23,0.13,0.29|
];
transition_y3=[
0.17,0.08,0.19,0.19,0.37|
0.41,0.41,0.04,0.1,0.04|
0.3,0.13,0.14,0.06,0.37|
0.14,0.28,0.33,0.19,0.062|
0.19,0.29,0.38,0.033,0.11|
];
transition_y4=[
0.38,0.13,0.027,0.21,0.26|
0.31,0.25,0.22,0.16,0.06|
0.12,0.19,0.28,0.23,0.17|
0.19,0.31,0.074,0.13,0.3|
0.26,0.26,0.19,0.12,0.16|
];
